int NumberPatients = 198
int NumberOfRooms = 16
int NumberSurgeons = 25
int NumberOfDays = 6
Duration = [210,47,60,78,32,60,98,98,103,132,119,28,103,130,97,103,103,68,103,93,66,38,32,32,140,32,66,98,85,31,47,46,157,98,120,66,112,32,60,103,47,47,93,47,272,131,98,119,32,66,32,32,101,32,98,122,85,260,119,32,39,66,93,46,66,122,119,119,105,166,68,98,47,46,103,210,78,50,72,32,93,78,103,85,53,60,103,140,66,66,103,65,33,46,100,101,32,93,317,78,103,74,72,238,119,66,66,66,227,55,32,68,60,38,210,130,28,47,38,210,67,32,119,32,59,130,58,66,67,68,39,119,103,28,238,47,105,166,72,76,64,97,66,130,217,238,47,122,32,105,105,66,130,32,98,101,46,166,72,98,119,98,47,88,114,119,117,31,131,93,67,47,53,60,105,85,140,93,103,117,98,50,46,72,60,98,130,31,59,39,260,267,47,85,85,60,32,98];
Priority = [0,0,0,1,0,0,0,0,0,0,0,0,0,0,0,0,0,0,0,0,0,0,0,0,0,0,0,0,0,0,0,0,0,0,0,0,0,0,0,0,0,0,0,0,0,0,1,0,0,0,0,0,0,0,0,0,0,0,0,0,0,0,0,0,0,0,0,0,0,0,0,0,1,0,0,0,0,0,0,0,0,0,0,0,0,0,0,0,0,0,0,0,0,0,1,0,0,0,0,0,0,0,0,0,0,0,0,0,0,0,0,0,0,0,0,0,0,0,0,0,0,0,1,0,0,0,0,0,0,0,0,0,0,0,0,0,0,0,0,0,0,0,0,0,0,0,0,0,0,0,0,0,0,0,0,0,0,0,0,0,0,0,0,0,0,0,0,0,0,0,0,0,0,0,0,0,0,0,0,0,0,0,0,0,0,2,0,0,0,0,0,0,0,1,0,0,0,0];
Waiting = [428,227,23,135,518,141,277,24,144,274,150,53,116,358,80,158,30,108,99,24,137,120,23,518,98,25,190,24,351,99,291,65,78,67,198,73,227,23,494,127,324,22,127,127,150,70,164,31,56,79,102,116,31,39,46,1096,123,158,162,193,261,277,24,281,480,50,67,79,211,354,200,316,50,127,155,158,65,220,116,317,211,35,155,99,85,382,198,221,63,228,156,107,56,221,361,45,144,31,74,277,46,57,253,445,31,95,63,73,149,37,247,134,487,354,52,196,417,46,43,32,52,115,66,37,80,95,499,77,67,67,190,225,162,21,338,37,95,127,150,25,25,122,178,127,269,366,148,70,548,389,354,59,56,247,36,116,35,50,221,78,37,361,191,56,24,205,220,548,70,417,221,46,39,73,120,205,150,80,141,193,176,319,106,78,56,52,172,338,79,274,21,162,148,191,92,79,79,93];
Surgeon = [6,4,5,3,4,4,2,4,1,1,1,11,5,1,2,2,3,3,4,5,6,2,9,2,3,13,4,4,2,17,5,2,5,9,3,6,3,5,12,5,6,2,1,15,3,6,8,2,1,9,1,3,4,2,6,6,5,2,5,6,9,1,1,6,9,6,2,3,6,5,8,4,5,5,12,8,10,2,9,6,2,3,1,6,1,3,10,6,10,7,5,7,9,1,3,3,2,2,4,4,16,3,4,4,5,8,3,6,4,4,1,5,3,10,3,7,3,1,4,4,3,10,5,2,12,6,3,5,5,2,4,1,3,3,8,8,7,3,4,7,2,6,3,8,5,4,6,1,3,4,3,13,3,5,1,6,3,8,3,2,6,1,9,5,5,5,4,1,11,10,2,4,11,7,1,4,5,3,7,11,3,3,5,1,11,1,2,5,1,6,2,3,1,5,1,3,2,1];
BlockAvailability = [[[0,0],[1,1],[0,0],[1,0],[1,0],[0,0],[0,1],[0,0],[1,0],[1,0],[0,0],[1,0],[0,0],[1,0],[1,1],[0,0]],[[0,0],[1,1],[0,1],[0,0],[0,1],[1,1],[0,0],[0,0],[0,0],[0,0],[1,0],[0,0],[0,0],[1,0],[0,1],[0,0]],[[0,1],[0,0],[0,0],[0,0],[0,1],[0,1],[0,0],[1,0],[0,0],[0,1],[1,1],[1,1],[0,0],[0,0],[1,0],[1,0]],[[0,1],[0,1],[0,0],[0,0],[0,0],[0,1],[0,0],[0,0],[1,0],[0,1],[0,1],[0,1],[0,0],[1,0],[0,0],[1,0]],[[0,1],[1,1],[0,1],[0,1],[0,0],[0,1],[1,0],[0,1],[1,0],[0,0],[0,1],[0,0],[1,0],[1,0],[0,1],[0,0]],[[0,0],[0,0],[1,1],[1,0],[1,0],[0,0],[0,0],[1,0],[0,0],[1,1],[0,0],[0,0],[0,1],[0,0],[0,0],[0,0]]];
SurgeonAvailability = [[[1,1],[1,1],[0,1],[1,1],[1,1],[0,1]],[[1,1],[1,1],[1,1],[1,1],[1,0],[1,1]],[[1,1],[0,1],[1,1],[0,1],[1,1],[1,1]],[[1,0],[1,0],[1,1],[1,0],[1,0],[1,1]],[[0,0],[0,0],[0,1],[0,0],[0,0],[1,1]],[[1,1],[1,1],[1,1],[0,1],[1,1],[1,1]],[[0,1],[1,1],[1,1],[1,1],[1,1],[0,0]],[[1,1],[0,1],[1,1],[1,1],[0,1],[1,0]],[[1,1],[1,0],[1,1],[1,1],[1,1],[1,1]],[[1,0],[0,1],[0,1],[1,1],[0,0],[1,0]],[[0,1],[1,0],[0,1],[0,1],[1,1],[1,1]],[[1,1],[1,1],[0,1],[0,1],[1,0],[1,1]],[[0,1],[1,1],[1,1],[1,1],[1,1],[1,1]],[[1,1],[1,1],[1,1],[0,1],[1,1],[0,0]],[[1,1],[1,1],[0,0],[0,1],[1,0],[0,1]],[[1,1],[1,1],[0,1],[1,0],[1,0],[1,1]],[[1,1],[1,0],[1,1],[0,1],[0,1],[1,1]],[[0,0],[1,1],[1,0],[1,0],[1,1],[1,1]],[[1,1],[1,0],[0,0],[1,1],[1,1],[0,1]],[[0,0],[1,1],[1,1],[1,0],[1,1],[1,0]],[[1,1],[1,1],[1,1],[1,1],[1,0],[0,0]],[[0,1],[1,0],[1,0],[1,1],[1,0],[1,1]],[[0,1],[1,1],[0,1],[0,1],[1,0],[0,1]],[[1,1],[1,1],[1,1],[1,1],[1,1],[1,0]],[[1,1],[0,1],[0,1],[1,0],[1,1],[1,1]]];
